(set-logic UFDT)
(declare-datatypes ((nat 0)) (((zero) (s (s0 nat)))))
(declare-fun add (nat nat) nat)
(non-erasing add 2)
(injective add (true true))
(declare-fun leq (nat nat) Bool)
(assert (forall ((y nat)) (= (add zero y) y)))
(assert (forall ((x nat) (y nat)) (= (add (s x) y) (s (add x y)))))
(assert (forall ((y nat)) (leq zero y)))
(assert (forall ((x nat)) (not (leq (s x) zero))))
(assert (forall ((x nat) (y nat)) (= (leq (s x) (s y)) (leq x y))))
(assert (not (forall ((v0 nat) (v1 nat) (v2 nat) (v3 nat) (v4 nat) (v5 nat) (v6 nat) (v7 nat) (v8 nat) (v9 nat)) (= (add (add (add (add (add (add (s v2) v7) zero) (s v9)) (s v8)) (s v5)) (add (s (s (s v3))) (add (add (s v9) (s (s (add v6 (s (s v1)))))) (s (add (s (s v4)) v0))))) (s (add (s (add (add v9 (s (add (add v6 (s v9)) (s (add v0 (add (s (add (add (s v5) (s (s (s (s v8))))) v3)) (add (s (add (s (s v1)) zero)) (s v2)))))))) v7)) v4))))))
(check-sat)
